p cnf 45 625
-1 -10 0
-1 -11 0
-1 -12 0
-1 -13 0
-1 -14 0
-2 -10 0
-2 -11 0
-2 -12 0
-2 -13 0
-2 -14 0
-3 -10 0
-3 -11 0
-3 -12 0
-3 -13 0
-3 -14 0
-4 -10 0
-4 -11 0
-4 -12 0
-4 -13 0
-4 -14 0
-5 -10 0
-5 -11 0
-5 -12 0
-5 -13 0
-5 -14 0
-1 -28 0
-1 -29 0
-1 -30 0
-1 -31 0
-1 -32 0
-2 -28 0
-2 -29 0
-2 -30 0
-2 -31 0
-2 -32 0
-3 -28 0
-3 -29 0
-3 -30 0
-3 -31 0
-3 -32 0
-4 -28 0
-4 -29 0
-4 -30 0
-4 -31 0
-4 -32 0
-5 -28 0
-5 -29 0
-5 -30 0
-5 -31 0
-5 -32 0
-1 -37 0
-1 -38 0
-1 -39 0
-1 -40 0
-1 -41 0
-2 -37 0
-2 -38 0
-2 -39 0
-2 -40 0
-2 -41 0
-3 -37 0
-3 -38 0
-3 -39 0
-3 -40 0
-3 -41 0
-4 -37 0
-4 -38 0
-4 -39 0
-4 -40 0
-4 -41 0
-5 -37 0
-5 -38 0
-5 -39 0
-5 -40 0
-5 -41 0
-1 -46 0
-1 -47 0
-1 -48 0
-1 -49 0
-1 -50 0
-2 -46 0
-2 -47 0
-2 -48 0
-2 -49 0
-2 -50 0
-3 -46 0
-3 -47 0
-3 -48 0
-3 -49 0
-3 -50 0
-4 -46 0
-4 -47 0
-4 -48 0
-4 -49 0
-4 -50 0
-5 -46 0
-5 -47 0
-5 -48 0
-5 -49 0
-5 -50 0
-1 -64 0
-1 -65 0
-1 -66 0
-1 -67 0
-1 -68 0
-2 -64 0
-2 -65 0
-2 -66 0
-2 -67 0
-2 -68 0
-3 -64 0
-3 -65 0
-3 -66 0
-3 -67 0
-3 -68 0
-4 -64 0
-4 -65 0
-4 -66 0
-4 -67 0
-4 -68 0
-5 -64 0
-5 -65 0
-5 -66 0
-5 -67 0
-5 -68 0
-1 -73 0
-1 -74 0
-1 -75 0
-1 -76 0
-1 -77 0
-2 -73 0
-2 -74 0
-2 -75 0
-2 -76 0
-2 -77 0
-3 -73 0
-3 -74 0
-3 -75 0
-3 -76 0
-3 -77 0
-4 -73 0
-4 -74 0
-4 -75 0
-4 -76 0
-4 -77 0
-5 -73 0
-5 -74 0
-5 -75 0
-5 -76 0
-5 -77 0
-10 -19 0
-10 -20 0
-10 -21 0
-10 -22 0
-10 -23 0
-11 -19 0
-11 -20 0
-11 -21 0
-11 -22 0
-11 -23 0
-12 -19 0
-12 -20 0
-12 -21 0
-12 -22 0
-12 -23 0
-13 -19 0
-13 -20 0
-13 -21 0
-13 -22 0
-13 -23 0
-14 -19 0
-14 -20 0
-14 -21 0
-14 -22 0
-14 -23 0
-10 -46 0
-10 -47 0
-10 -48 0
-10 -49 0
-10 -50 0
-11 -46 0
-11 -47 0
-11 -48 0
-11 -49 0
-11 -50 0
-12 -46 0
-12 -47 0
-12 -48 0
-12 -49 0
-12 -50 0
-13 -46 0
-13 -47 0
-13 -48 0
-13 -49 0
-13 -50 0
-14 -46 0
-14 -47 0
-14 -48 0
-14 -49 0
-14 -50 0
-10 -55 0
-10 -56 0
-10 -57 0
-10 -58 0
-10 -59 0
-11 -55 0
-11 -56 0
-11 -57 0
-11 -58 0
-11 -59 0
-12 -55 0
-12 -56 0
-12 -57 0
-12 -58 0
-12 -59 0
-13 -55 0
-13 -56 0
-13 -57 0
-13 -58 0
-13 -59 0
-14 -55 0
-14 -56 0
-14 -57 0
-14 -58 0
-14 -59 0
-19 -46 0
-19 -47 0
-19 -48 0
-19 -49 0
-19 -50 0
-20 -46 0
-20 -47 0
-20 -48 0
-20 -49 0
-20 -50 0
-21 -46 0
-21 -47 0
-21 -48 0
-21 -49 0
-21 -50 0
-22 -46 0
-22 -47 0
-22 -48 0
-22 -49 0
-22 -50 0
-23 -46 0
-23 -47 0
-23 -48 0
-23 -49 0
-23 -50 0
-19 -55 0
-19 -56 0
-19 -57 0
-19 -58 0
-19 -59 0
-20 -55 0
-20 -56 0
-20 -57 0
-20 -58 0
-20 -59 0
-21 -55 0
-21 -56 0
-21 -57 0
-21 -58 0
-21 -59 0
-22 -55 0
-22 -56 0
-22 -57 0
-22 -58 0
-22 -59 0
-23 -55 0
-23 -56 0
-23 -57 0
-23 -58 0
-23 -59 0
-37 -46 0
-37 -47 0
-37 -48 0
-37 -49 0
-37 -50 0
-38 -46 0
-38 -47 0
-38 -48 0
-38 -49 0
-38 -50 0
-39 -46 0
-39 -47 0
-39 -48 0
-39 -49 0
-39 -50 0
-40 -46 0
-40 -47 0
-40 -48 0
-40 -49 0
-40 -50 0
-41 -46 0
-41 -47 0
-41 -48 0
-41 -49 0
-41 -50 0
-55 -64 0
-55 -65 0
-55 -66 0
-55 -67 0
-55 -68 0
-56 -64 0
-56 -65 0
-56 -66 0
-56 -67 0
-56 -68 0
-57 -64 0
-57 -65 0
-57 -66 0
-57 -67 0
-57 -68 0
-58 -64 0
-58 -65 0
-58 -66 0
-58 -67 0
-58 -68 0
-59 -64 0
-59 -65 0
-59 -66 0
-59 -67 0
-59 -68 0
-55 -73 0
-55 -74 0
-55 -75 0
-55 -76 0
-55 -77 0
-56 -73 0
-56 -74 0
-56 -75 0
-56 -76 0
-56 -77 0
-57 -73 0
-57 -74 0
-57 -75 0
-57 -76 0
-57 -77 0
-58 -73 0
-58 -74 0
-58 -75 0
-58 -76 0
-58 -77 0
-59 -73 0
-59 -74 0
-59 -75 0
-59 -76 0
-59 -77 0
-1 -10 0
-1 -19 0
-1 -28 0
-1 -37 0
-1 -46 0
-1 -55 0
-1 -64 0
-1 -73 0
-10 -19 0
-10 -28 0
-10 -37 0
-10 -46 0
-10 -55 0
-10 -64 0
-10 -73 0
-19 -28 0
-19 -37 0
-19 -46 0
-19 -55 0
-19 -64 0
-19 -73 0
-28 -37 0
-28 -46 0
-28 -55 0
-28 -64 0
-28 -73 0
-37 -46 0
-37 -55 0
-37 -64 0
-37 -73 0
-46 -55 0
-46 -64 0
-46 -73 0
-55 -64 0
-55 -73 0
-64 -73 0
1 10 19 28 37 46 55 64 73 0
-2 -11 0
-2 -20 0
-2 -29 0
-2 -38 0
-2 -47 0
-2 -56 0
-2 -65 0
-2 -74 0
-11 -20 0
-11 -29 0
-11 -38 0
-11 -47 0
-11 -56 0
-11 -65 0
-11 -74 0
-20 -29 0
-20 -38 0
-20 -47 0
-20 -56 0
-20 -65 0
-20 -74 0
-29 -38 0
-29 -47 0
-29 -56 0
-29 -65 0
-29 -74 0
-38 -47 0
-38 -56 0
-38 -65 0
-38 -74 0
-47 -56 0
-47 -65 0
-47 -74 0
-56 -65 0
-56 -74 0
-65 -74 0
2 11 20 29 38 47 56 65 74 0
-3 -12 0
-3 -21 0
-3 -30 0
-3 -39 0
-3 -48 0
-3 -57 0
-3 -66 0
-3 -75 0
-12 -21 0
-12 -30 0
-12 -39 0
-12 -48 0
-12 -57 0
-12 -66 0
-12 -75 0
-21 -30 0
-21 -39 0
-21 -48 0
-21 -57 0
-21 -66 0
-21 -75 0
-30 -39 0
-30 -48 0
-30 -57 0
-30 -66 0
-30 -75 0
-39 -48 0
-39 -57 0
-39 -66 0
-39 -75 0
-48 -57 0
-48 -66 0
-48 -75 0
-57 -66 0
-57 -75 0
-66 -75 0
3 12 21 30 39 48 57 66 75 0
-4 -13 0
-4 -22 0
-4 -31 0
-4 -40 0
-4 -49 0
-4 -58 0
-4 -67 0
-4 -76 0
-13 -22 0
-13 -31 0
-13 -40 0
-13 -49 0
-13 -58 0
-13 -67 0
-13 -76 0
-22 -31 0
-22 -40 0
-22 -49 0
-22 -58 0
-22 -67 0
-22 -76 0
-31 -40 0
-31 -49 0
-31 -58 0
-31 -67 0
-31 -76 0
-40 -49 0
-40 -58 0
-40 -67 0
-40 -76 0
-49 -58 0
-49 -67 0
-49 -76 0
-58 -67 0
-58 -76 0
-67 -76 0
4 13 22 31 40 49 58 67 76 0
-5 -14 0
-5 -23 0
-5 -32 0
-5 -41 0
-5 -50 0
-5 -59 0
-5 -68 0
-5 -77 0
-14 -23 0
-14 -32 0
-14 -41 0
-14 -50 0
-14 -59 0
-14 -68 0
-14 -77 0
-23 -32 0
-23 -41 0
-23 -50 0
-23 -59 0
-23 -68 0
-23 -77 0
-32 -41 0
-32 -50 0
-32 -59 0
-32 -68 0
-32 -77 0
-41 -50 0
-41 -59 0
-41 -68 0
-41 -77 0
-50 -59 0
-50 -68 0
-50 -77 0
-59 -68 0
-59 -77 0
-68 -77 0
5 14 23 32 41 50 59 68 77 0
-1 -2 0
-1 -3 0
-1 -4 0
-1 -5 0
-2 -3 0
-2 -4 0
-2 -5 0
-3 -4 0
-3 -5 0
-4 -5 0
-10 -11 0
-10 -12 0
-10 -13 0
-10 -14 0
-11 -12 0
-11 -13 0
-11 -14 0
-12 -13 0
-12 -14 0
-13 -14 0
-19 -20 0
-19 -21 0
-19 -22 0
-19 -23 0
-20 -21 0
-20 -22 0
-20 -23 0
-21 -22 0
-21 -23 0
-22 -23 0
-28 -29 0
-28 -30 0
-28 -31 0
-28 -32 0
-29 -30 0
-29 -31 0
-29 -32 0
-30 -31 0
-30 -32 0
-31 -32 0
-37 -38 0
-37 -39 0
-37 -40 0
-37 -41 0
-38 -39 0
-38 -40 0
-38 -41 0
-39 -40 0
-39 -41 0
-40 -41 0
-46 -47 0
-46 -48 0
-46 -49 0
-46 -50 0
-47 -48 0
-47 -49 0
-47 -50 0
-48 -49 0
-48 -50 0
-49 -50 0
-55 -56 0
-55 -57 0
-55 -58 0
-55 -59 0
-56 -57 0
-56 -58 0
-56 -59 0
-57 -58 0
-57 -59 0
-58 -59 0
-64 -65 0
-64 -66 0
-64 -67 0
-64 -68 0
-65 -66 0
-65 -67 0
-65 -68 0
-66 -67 0
-66 -68 0
-67 -68 0
-73 -74 0
-73 -75 0
-73 -76 0
-73 -77 0
-74 -75 0
-74 -76 0
-74 -77 0
-75 -76 0
-75 -77 0
-76 -77 0
